sat
(
  (define-fun H () String
    "")
  (define-fun I () String
    "aa")
  (define-fun L () String
    "aaaaa")
  (define-fun G () String
    "")
  (define-fun O () String
    "")
  (define-fun Q () String
    "aa")
  (define-fun J () String
    "a")
  (define-fun M () String
    "")
  (define-fun P () String
    "")
  (define-fun K () String
    "a")
  (define-fun N () String
    "a")
)
